NAME : pr10.tsp
COMMENT : 10-city problem
TYPE : TSP 
DIMENSION : 10
EDGE_WEIGHT_TYPE : CEIL_2D
NODE_COORD_SECTION 
1  4.762800e+04 3.738800e+04 
2  2.814200e+04 4.713500e+04 
3  7.535000e+03 6.672300e+04 
4  4.351200e+04 1.833600e+04 
5  6.013300e+04 1.504000e+04 
6  4.224800e+04 9.104400e+04 
7  8.141000e+04 7.664500e+04 
8  5.488200e+04 2.137200e+04 
9  7.697200e+04 5.002200e+04 
10 6.680800e+04 7.381100e+04 
EOF 
